gen cost
0 1490
1 1471
2 1459
3 1440
4 1436
5 1429
6 1385
7 1382
8 1370
9 1354
10 1354
11 1354
12 1350
13 1333
14 1322
15 1299
16 1296
17 1290
18 1280
19 1280
20 1270
21 1261
22 1261
23 1255
24 1246
25 1236
26 1234
27 1232
28 1220
29 1207
30 1202
31 1199
32 1187
33 1181
34 1179
35 1177
36 1175
37 1169
38 1165
39 1160
40 1156
41 1156
42 1156
43 1154
44 1153
45 1150
46 1149
47 1149
48 1146
49 1146
